Traveling Salesman Problem/TSP_generados/Aleatorio1620390921_9.tsp
NAME: Aleatorio1620390921_9.tsp
COMMENT: Randomly generated scenario
TYPE: TSP
DIMENSION: 9
EDGE_WEIGHT_TYPE: ATT
NODE_COORD_SECTION
1 24.53 32.8
2 44.62 22.45
3 43.91 0.13
4 17.01 48.28
5 27.49 38.49
6 7.54 47.89
7 11.04 43.47
8 37.33 38.23
9 39.91 47.62
