Traveling Salesman Problem/TSP_generados/Aleatorio1620390921_9.opt.tour
NAME: Aleatorio1620390921_9.opt.tour
COMMENT: Optimal solution for Aleatorio1620390921_9 (149.0641510226423)
TYPE: TOUR
DIMENSION: 9
TOUR_SECTION
1 3 2 8 9 4 6 7 5
-1
EOF
